Linux optc-01-15 4.15.0-58-generic #64-Ubuntu SMP Tue Aug 6 11:12:41 UTC 2019 x86_64 x86_64 x86_64 GNU/Linux

top - 19:05:20 up 1 day,  9:06,  0 users,  load average: 0,94, 0,99, 0,99
Tasks: 291 gesamt,   1 laufend, 149 schlafend,   0 gestoppt,   0 Zombie
%CPU(s):  6,1 be,  0,2 sy,  0,0 ni, 93,6 un,  0,0 wa,  0,0 hi,  0,0 si,  0,0 st
KiB Spch : 97514992 gesamt, 95500000 frei,   648816 belegt,  1366180 Puff/Cache
KiB Swap:  8388604 gesamt,  8388604 frei,        0 belegt. 96125536 verfü Spch 

  PID USER      PR  NI    VIRT    RES    SHR S  %CPU %MEM     ZEIT+ BEFEHL
31618 bzfhende  20   0   52664   4260   3508 R   6,2  0,0   0:00.01 top
    1 root      20   0  233856   9228   6524 S   0,0  0,0   0:11.44 systemd
    2 root      20   0       0      0      0 S   0,0  0,0   0:00.11 kthreadd
    3 root      20   0       0      0      0 I   0,0  0,0   0:00.96 kworker/0:0
    4 root       0 -20       0      0      0 I   0,0  0,0   0:00.00 kworker/0:+
    6 root      20   0       0      0      0 I   0,0  0,0   0:00.00 kworker/u3+
    7 root       0 -20       0      0      0 I   0,0  0,0   0:00.00 mm_percpu_+
    8 root      20   0       0      0      0 S   0,0  0,0   0:00.00 ksoftirqd/0

hard time limit: 04:10:00
hard mem limit: 55100

SLURM jobID: 2182438

@01 /nfs/optimi/kombadon/IP/miplib2017/supportcase10.mps.gz ===========
-----------------------------
Do 22. Aug 19:05:20 CEST 2019
-----------------------------
@03 1566493520
@05 7200
SCIP version 6.0.0 [precision: 8 byte] [memory: block] [mode: optimized] [LP solver: CPLEX 12.8.0.0] [GitHash: 41ab6e0014]
Copyright (C) 2002-2018 Konrad-Zuse-Zentrum fuer Informationstechnik Berlin (ZIB)

External codes: 
  Readline 7.0         GNU library for command line editing (gnu.org/s/readline)
  CPLEX 12.8.0.0       Linear Programming Solver developed by IBM (www.cplex.com)
  CppAD 20180000.0     Algorithmic Differentiation of C++ algorithms developed by B. Bell (www.coin-or.org/CppAD)
  ZLIB 1.2.11          General purpose compression library by J. Gailly and M. Adler (zlib.net)
  GMP 6.1.2            GNU Multiple Precision Arithmetic Library developed by T. Granlund (gmplib.org)
  bliss 0.73p          Computing Graph Automorphism Groups by T. Junttila and P. Kaski (http://www.tcs.hut.fi/Software/bliss/)

user parameter file <scip.set> not found - using default parameters

SCIP> 
SCIP> set load /home/optimi/bzfhende/opti/scip-opti/check/../settings/enable_treeeprofile.set
loaded parameter file </home/optimi/bzfhende/opti/scip-opti/check/../settings/enable_treeprofile.set>
SCIP> set misc referencevalue 7
misc/referencevalue = 7
SCIP> set limits time 7200
limits/time = 7200
SCIP> set limits nodes 2100000000
limits/nodes = 2100000000
SCIP> set limits memory 50000
limits/memory = 50000
SCIP> set lp advanced threads 1
lp/threads = 1
SCIP> set timing clocktype 1
timing/clocktype = 1
SCIP> set display freq 10000
display/freq = 10000
SCIP> set memory savefac 1.0
memory/savefac = 1
SCIP> set save /home/optimi/bzfhende/opti/scip-opti/check/treesize.estimation.jouurnal.3/bzfhende.miplib2017.214_supportcase10.scip.M640.enable_treeprofile.set
saved parameter file </home/optimi/bzfhende/opti/scip-opti/check/treesize.estimation.journal.3/bzfhende.miplib2017.214_supportcase10.scip.M640.enable_treeprofile.set>
SCIP> read /nfs/optimi/kombadon/IP/miplib2017/supportcase10.mps.gz

read problem </nfs/optimi/kombadon/IP/miplib2017/supportcase10.mps.gz>
============

original problem has 14770 variables (14770 bin, 0 int, 0 impl, 0 cont) and 165684 constraints
SCIP> display parameters

number of parameters = 2448
non-default parameter settings:
display/freq = 10000
limits/time = 7200
limits/nodes = 2100000000
limits/memory = 50000
lp/threads = 1
memory/savefac = 1
misc/referencevalue = 7
presolving/maxrestarts = 0
estimates/profile/enabled = TRUE
estimates/profile/maxdepthfactor = 10
estimates/profile/freq = 0

SCIP> optimize

Activating tree profile data collection
presolving:
(round 1, fast)       5065 del vars, 11372 del conss, 0 add conss, 36 chg bounds, 0 chg sides, 0 chg coeffs, 0 upgd conss, 0 impls, 26290 clqs
(round 2, fast)       5790 del vars, 41382 del conss, 0 add conss, 36 chg bounds, 0 chg sides, 0 chg coeffs, 0 upgd conss, 0 impls, 26290 clqs
(round 3, medium)     5815 del vars, 41382 del conss, 0 add conss, 36 chg bounds, 0 chg sides, 0 chg coeffs, 0 upgd conss, 0 impls, 26240 clqs
(round 4, fast)       5815 del vars, 41482 del conss, 0 add conss, 36 chg bounds, 0 chg sides, 0 chg coeffs, 0 upgd conss, 0 impls, 26240 clqs
(round 5, exhaustive) 5815 del vars, 60475 del conss, 0 add conss, 36 chg bounds, 0 chg sides, 0 chg coeffs, 0 upgd conss, 0 impls, 26240 clqs
(round 6, exhaustive) 5815 del vars, 60475 del conss, 0 add conss, 36 chg bounds, 0 chg sides, 0 chg coeffs, 105209 upgd conss, 0 impls, 26240 clqs
(round 7, exhaustive) 5815 del vars, 92228 del conss, 7199 add conss, 36 chg bounds, 0 chg sides, 0 chg coeffs, 105209 upgd conss, 0 impls, 26240 clqs
(round 8, exhaustive) 5841 del vars, 92254 del conss, 7199 add conss, 36 chg bounds, 0 chg sides, 0 chg coeffs, 105209 upgd conss, 0 impls, 26178 clqs
(round 9, exhaustive) 5858 del vars, 92272 del conss, 7199 add conss, 36 chg bounds, 0 chg sides, 0 chg coeffs, 105209 upgd conss, 0 impls, 26150 clqs
   (4.2s) probing: 1000/8912 (11.2%) - 0 fixings, 0 aggregations, 129761 implications, 0 bound changes
   (4.2s) probing: 1001/8912 (11.2%) - 0 fixings, 0 aggregations, 129907 implications, 0 bound changes
   (4.2s) probing aborted: 1000/1000 successive useless probings
presolving (10 rounds: 10 fast, 7 medium, 6 exhaustive):
 5858 deleted vars, 92272 deleted constraints, 7199 added constraints, 36 tightened bounds, 0 added holes, 0 changed sides, 46 changed coefficients
 0 implications, 156065 cliques
presolved problem has 8912 variables (8912 bin, 0 int, 0 impl, 0 cont) and 80611 constraints
   1686 constraints of type <setppc>
   7156 constraints of type <and>
  71769 constraints of type <logicor>
transformed objective value is always integral (scale: 1)
Presolving Time: 4.20

 time | node  | left  |LP iter|LP it/n| mem |mdpt |frac |vars |cons |cols |rows |cuts |confs|strbr|  dualbound   | primalbound  |  gap   
t 4.4s|     1 |     0 |     0 |     - | 316M|   0 |   - |8912 |  80k|   0 |   0 |   0 |   0 |   0 | 0.000000e+00 | 7.000000e+01 |    Inf 
Q 4.7s|     1 |     0 |     0 |     - | 370M|   0 |   - |8912 |  80k|8912 |  87k|   0 |   0 |   0 | 0.000000e+00 | 1.800000e+01 |    Inf 
 91.6s|     1 |     0 | 79496 |     - | 379M|   0 |7745 |8912 |  80k|8912 |  87k|   0 |  94 |   0 | 1.343905e+00 | 1.800000e+01 |1239.38%
  266s|     1 |     0 |137364 |     - | 381M|   0 |6967 |8912 |  80k|8912 |  89k|2000 |  97 |   0 | 2.288215e+00 | 1.800000e+01 | 686.64%
  443s|     1 |     0 |193990 |     - | 416M|   0 |6769 |8912 |  80k|8912 |  91k|4000 |  98 |   0 | 2.865960e+00 | 1.800000e+01 | 528.06%
  632s|     1 |     0 |253525 |     - | 435M|   0 |6711 |8912 |  80k|8912 |  92k|5116 | 106 |   0 | 3.161988e+00 | 1.800000e+01 | 469.26%
  845s|     1 |     0 |322250 |     - | 456M|   0 |6984 |8912 |  80k|8912 |  93k|5677 | 110 |   0 | 3.247612e+00 | 1.800000e+01 | 454.25%
 1035s|     1 |     0 |383884 |     - | 484M|   0 |7193 |8912 |  80k|8912 |  93k|6017 | 112 |   0 | 3.273315e+00 | 1.800000e+01 | 449.90%
 1205s|     1 |     0 |437617 |     - | 502M|   0 |7171 |8912 |  80k|8912 |  94k|6256 | 117 |   0 | 3.274670e+00 | 1.800000e+01 | 449.67%
 1363s|     1 |     0 |486696 |     - | 516M|   0 |7238 |8912 |  80k|8912 |  94k|6392 | 124 |   0 | 3.274754e+00 | 1.800000e+01 | 449.66%
 1565s|     1 |     0 |548466 |     - | 569M|   0 |7133 |8912 |  80k|8912 |  94k|6528 | 127 |   0 | 3.290055e+00 | 1.800000e+01 | 447.10%
 1749s|     1 |     0 |604341 |     - | 586M|   0 |7109 |8912 |  80k|8912 |  94k|6707 | 128 |   0 | 3.310275e+00 | 1.800000e+01 | 443.76%
 1944s|     1 |     0 |665429 |     - | 603M|   0 |7101 |8912 |  80k|8912 |  94k|6852 | 129 |   0 | 3.310982e+00 | 1.800000e+01 | 443.65%
 2127s|     1 |     0 |721634 |     - | 622M|   0 |7148 |8912 |  80k|8912 |  94k|6978 | 131 |   0 | 3.311573e+00 | 1.800000e+01 | 443.55%
 2332s|     1 |     0 |785157 |     - | 646M|   0 |7091 |8912 |  80k|8912 |  94k|7080 | 132 |   0 | 3.313649e+00 | 1.800000e+01 | 443.21%
 time | node  | left  |LP iter|LP it/n| mem |mdpt |frac |vars |cons |cols |rows |cuts |confs|strbr|  dualbound   | primalbound  |  gap   
 2519s|     1 |     0 |842584 |     - | 658M|   0 |7046 |8912 |  80k|8912 |  94k|7168 | 138 |   0 | 3.320115e+00 | 1.800000e+01 | 442.15%
 2694s|     1 |     0 |896818 |     - | 662M|   0 |7067 |8912 |  80k|8912 |  95k|7264 | 143 |   0 | 3.320115e+00 | 1.800000e+01 | 442.15%
 2889s|     1 |     0 |955242 |     - | 675M|   0 |7097 |8912 |  80k|8912 |  95k|7332 | 152 |   0 | 3.332207e+00 | 1.800000e+01 | 440.18%
 3100s|     1 |     0 |  1019k|     - | 687M|   0 |7006 |8912 |  80k|8912 |  95k|7439 | 156 |   0 | 3.347295e+00 | 1.800000e+01 | 437.75%
 3385s|     1 |     0 |  1103k|     - | 700M|   0 |7125 |8912 |  80k|8912 |  94k|7523 | 161 |   0 | 3.349660e+00 | 1.800000e+01 | 437.37%
 3619s|     1 |     0 |  1171k|     - | 717M|   0 |7069 |8912 |  80k|8912 |  94k|7618 | 168 |   0 | 3.371576e+00 | 1.800000e+01 | 433.87%
 3793s|     1 |     0 |  1222k|     - | 731M|   0 |7064 |8912 |  80k|8912 |  94k|7700 | 173 |   0 | 3.371576e+00 | 1.800000e+01 | 433.87%
 3987s|     1 |     0 |  1280k|     - | 741M|   0 |6975 |8912 |  80k|8912 |  94k|7771 | 177 |   0 | 3.374126e+00 | 1.800000e+01 | 433.47%
 4174s|     1 |     0 |  1336k|     - | 756M|   0 |6974 |8912 |  80k|8912 |  95k|7861 | 183 |   0 | 3.374126e+00 | 1.800000e+01 | 433.47%
 4386s|     1 |     0 |  1400k|     - | 758M|   0 |6866 |8912 |  80k|8912 |  95k|7916 | 188 |   0 | 3.408726e+00 | 1.800000e+01 | 428.06%
 4542s|     1 |     0 |  1445k|     - | 759M|   0 |6852 |8912 |  80k|8912 |  94k|7991 | 190 |   0 | 3.409942e+00 | 1.800000e+01 | 427.87%
 4738s|     1 |     0 |  1501k|     - | 761M|   0 |6816 |8912 |  80k|8912 |  95k|8058 | 196 |   0 | 3.411456e+00 | 1.800000e+01 | 427.63%
 4916s|     1 |     0 |  1554k|     - | 762M|   0 |6809 |8912 |  80k|8912 |  95k|8134 | 204 |   0 | 3.411880e+00 | 1.800000e+01 | 427.57%
 5108s|     1 |     0 |  1612k|     - | 763M|   0 |6802 |8912 |  80k|8912 |  95k|8190 | 211 |   0 | 3.411995e+00 | 1.800000e+01 | 427.55%
 5268s|     1 |     0 |  1661k|     - | 764M|   0 |6791 |8912 |  80k|8912 |  95k|8241 | 220 |   0 | 3.411995e+00 | 1.800000e+01 | 427.55%
 time | node  | left  |LP iter|LP it/n| mem |mdpt |frac |vars |cons |cols |rows |cuts |confs|strbr|  dualbound   | primalbound  |  gap   
 5435s|     1 |     0 |  1711k|     - | 766M|   0 |6796 |8912 |  80k|8912 |  95k|8280 | 228 |   0 | 3.411995e+00 | 1.800000e+01 | 427.55%
 5618s|     1 |     0 |  1763k|     - | 767M|   0 |6786 |8912 |  80k|8912 |  95k|8323 | 232 |   0 | 3.411995e+00 | 1.800000e+01 | 427.55%
 5810s|     1 |     0 |  1818k|     - | 768M|   0 |6790 |8912 |  80k|8912 |  95k|8364 | 239 |   0 | 3.412153e+00 | 1.800000e+01 | 427.53%
 6002s|     1 |     0 |  1875k|     - | 769M|   0 |6778 |8912 |  80k|8912 |  95k|8416 | 240 |   0 | 3.412153e+00 | 1.800000e+01 | 427.53%
 6166s|     1 |     0 |  1926k|     - | 770M|   0 |6840 |8912 |  80k|8912 |  95k|8453 | 242 |   0 | 3.412204e+00 | 1.800000e+01 | 427.52%
 6337s|     1 |     0 |  1977k|     - | 772M|   0 |6837 |8912 |  80k|8912 |  95k|8483 | 252 |   0 | 3.412204e+00 | 1.800000e+01 | 427.52%
 6512s|     1 |     0 |  2030k|     - | 773M|   0 |6836 |8912 |  80k|8912 |  95k|8522 | 259 |   0 | 3.412204e+00 | 1.800000e+01 | 427.52%
 6686s|     1 |     0 |  2082k|     - | 774M|   0 |6836 |8912 |  80k|8912 |  95k|8555 | 262 |   0 | 3.412204e+00 | 1.800000e+01 | 427.52%
SCIP nodes: 1 Estimation: -1
 7200s|     1 |     2 |  2141k|     - | 778M|   0 |   - |8912 |  80k|8912 |  95k|8555 | 266 |   7 | 3.427897e+00 | 1.800000e+01 | 425.10%

SCIP Status        : solving was interrupted [time limit reached]
Solving Time (sec) : 7200.02
Solving Nodes      : 1
Primal Bound       : +1.80000000000000e+01 (2 solutions)
Dual Bound         : +3.42789684732252e+00
Gap                : 425.10 %

SCIP> display statistics

SCIP Status        : solving was interrupted [time limit reached]
Total Time         :    7200.43
  solving          :    7200.02
  presolving       :       4.20 (included in solving)
  reading          :       0.41
  copying          :       0.00 (0 times copied the problem)
Original Problem   :
  Problem name     : supportcase10
  Variables        : 14770 (14770 binary, 0 integer, 0 implicit integer, 0 continuous)
  Constraints      : 165684 initial, 165684 maximal
  Objective        : minimize, 70 non-zeros (abs.min = 1, abs.max = 1)
Presolved Problem  :
  Problem name     : t_supportcase10
  Variables        : 8912 (8912 binary, 0 integer, 0 implicit integer, 0 continuous)
  Constraints      : 80611 initial, 80865 maximal
  Objective        : minimize, 70 non-zeros (abs.min = 1, abs.max = 1)
Presolvers         :   ExecTime  SetupTime  Calls  FixedVars   AggrVars   ChgTypes  ChgBounds   AddHoles    DelCons    AddCons   ChgSides   ChgCoefs
  boundshift       :       0.00       0.00      0          0          0          0          0          0          0          0          0          0
  convertinttobin  :       0.00       0.00      0          0          0          0          0          0          0          0          0          0
  domcol           :       0.03       0.00      1          0          0          0          0          0          0          0          0          0
  dualagg          :       0.00       0.00      0          0          0          0          0          0          0          0          0          0
  dualcomp         :       0.00       0.00      0          0          0          0          0          0          0          0          0          0
  dualinfer        :       0.00       0.00      0          0          0          0          0          0          0          0          0          0
  gateextraction   :       0.37       0.00      4          0          0          0          0          0      31753       7199          0          0
  implics          :       0.00       0.00      7          0          0          0          0          0          0          0          0          0
  inttobinary      :       0.00       0.00      0          0          0          0          0          0          0          0          0          0
  qpkktref         :       0.00       0.00      0          0          0          0          0          0          0          0          0          0
  redvub           :       0.00       0.00      0          0          0          0          0          0          0          0          0          0
  sparsify         :       0.03       0.00      1          0          0          0          0          0          0          0          0          0
  stuffing         :       0.00       0.00      0          0          0          0          0          0          0          0          0          0
  symbreak         :       0.00       0.00      0          0          0          0          0          0          0          0          0          0
  symmetry         :       0.00       0.00      0          0          0          0          0          0          0          0          0          0
  trivial          :       0.01       0.00     10          0          0          0          0          0          0          0          0          0
  tworowbnd        :       0.00       0.00      0          0          0          0          0          0          0          0          0          0
  dualfix          :       0.01       0.00     10        935          0          0          0          0          0          0          0          0
  genvbounds       :       0.00       0.00      0          0          0          0          0          0          0          0          0          0
  orbitalfixing    :       0.00       0.00      0          0          0          0          0          0          0          0          0          0
  probing          :       1.93       0.00      1          0          0          0          0          0          0          0          0          0
  pseudoobj        :       0.00       0.00      0          0          0          0          0          0          0          0          0          0
  vbounds          :       0.00       0.00      1          0         25          0          0          0          0          0          0          0
  knapsack         :       0.00       0.00      0          0          0          0          0          0          0          0          0          0
  setppc           :       0.05       0.00     11          0          0          0          0          0          0          0          0          0
  and              :       0.07       0.00      6          0         43          0          0          0         43          0          0          0
  linear           :       0.91       0.04      8         36       4819          0         36          0      60475          0          0          0
  logicor          :       0.48       0.11      9          0          0          0          0          0          1          0          0         46
  benders          :       0.00       0.00      0          0          0          0          0          0          0          0          0          0
  components       :       0.03       0.00      1          0          0          0          0          0          0          0          0          0
  root node        :          -          -      -          0          -          -          0          -          -          -          -          -
Constraints        :     Number  MaxNumber  #Separate #Propagate    #EnfoLP    #EnfoRelax  #EnfoPS    #Check   #ResProp    Cutoffs    DomReds       Cuts    Applied      Conss   Children
  benderslp        :          0          0          0          0          1          0          0          9          0          0          0          0          0          0          0
  integral         :          0          0          0          0          1          0          0          9          0          0          0          0          0          0          2
  knapsack         :          0+         1          0       6705          0          0          0          0        140          4          0          0          0          0          0
  setppc           :       1686+      1693         34       9876          0          0          0          4         53          6          0          3          3          0          0
  and              :       7156       7156         35       9874          0          0          0          3       1880         39          0      37073       6778          0          0
  logicor          :      71769+     72015         34       5616          0          0          0          2        112         20          0        300          7          0          0
  benders          :          0          0          0          0          0          0          0          3          0          0          0          0          0          0          0
  countsols        :          0          0          0          0          0          0          0          3          0          0          0          0          0          0          0
  components       :          0          0          0          0          0          0          0          0          0          0          0          0          0          0          0
Constraint Timings :  TotalTime  SetupTime   Separate  Propagate     EnfoLP     EnfoPS     EnfoRelax   Check    ResProp    SB-Prop
  benderslp        :       0.00       0.00       0.00       0.00       0.00       0.00       0.00       0.00       0.00       0.00
  integral         :     125.77       0.00       0.00       0.00     125.77       0.00       0.00       0.00       0.00       0.00
  knapsack         :       0.01       0.00       0.00       0.01       0.00       0.00       0.00       0.00       0.00       0.00
  setppc           :       0.16       0.00       0.00       0.16       0.00       0.00       0.00       0.00       0.00       0.00
  and              :       1.23       0.00       0.11       1.10       0.00       0.00       0.00       0.01       0.00       0.01
  logicor          :       1.26       0.11       0.51       0.63       0.00       0.00       0.00       0.00       0.00       0.01
  benders          :       0.00       0.00       0.00       0.00       0.00       0.00       0.00       0.00       0.00       0.00
  countsols        :       0.00       0.00       0.00       0.00       0.00       0.00       0.00       0.00       0.00       0.00
  components       :       0.00       0.00       0.00       0.00       0.00       0.00       0.00       0.00       0.00       0.00
Propagators        : #Propagate   #ResProp    Cutoffs    DomReds
  dualfix          :          2          0          0          0
  genvbounds       :          0          0          0          0
  nlobbt           :          0          0          0          0
  obbt             :          0          0          0          0
  orbitalfixing    :          0          0          0          0
  probing          :          0          0          0          0
  pseudoobj        :         39          0          0          0
  redcost          :         37          0          0          0
  rootredcost      :          0          0          0          0
  vbounds          :       6883          0          0          0
Propagator Timings :  TotalTime  SetupTime   Presolve  Propagate    ResProp    SB-Prop
  dualfix          :       0.01       0.00       0.01       0.00       0.00       0.00
  genvbounds       :       0.00       0.00       0.00       0.00       0.00       0.00
  nlobbt           :       0.00       0.00       0.00       0.00       0.00       0.00
  obbt             :       0.00       0.00       0.00       0.00       0.00       0.00
  orbitalfixing    :       0.01       0.00       0.00       0.01       0.00       0.00
  probing          :       1.93       0.00       1.93       0.00       0.00       0.00
  pseudoobj        :       0.03       0.00       0.00       0.03       0.00       0.00
  redcost          :       0.03       0.00       0.00       0.03       0.00       0.00
  rootredcost      :       0.01       0.00       0.00       0.01       0.00       0.00
  vbounds          :       0.01       0.00       0.00       0.01       0.00       0.00
Conflict Analysis  :       Time      Calls    Success    DomReds  Conflicts   Literals    Reconvs ReconvLits   Dualrays   Nonzeros   LP Iters   (pool size: [10000,10000])
  propagation      :       0.01         65         65          -        286       21.0          3        9.7          -          -          -
  infeasible LP    :       0.00          0          0          -          0        0.0          0        0.0          0        0.0          0
  bound exceed. LP :       0.02          1          1          -         41       98.3          0        0.0          1       70.0         10
  strong branching :       0.00          0          0          -          0        0.0          0        0.0          -          -          0
  pseudo solution  :       0.00          0          0          -          0        0.0          0        0.0          -          -          -
  applied globally :       0.01          -          -          0        266       16.8          -          -          1          -          -
  applied locally  :          -          -          -          0          0        0.0          -          -          0          -          -
Separators         :   ExecTime  SetupTime      Calls    Cutoffs    DomReds       Cuts    Applied      Conss
  cut pool         :       0.26                    67          -          -      22603          -          -    (maximal pool size: 49591)
  aggregation      :      60.36       0.00         34          0          0          0          0          0
  cgmip            :       0.00       0.00          0          0          0          0          0          0
  clique           :       9.56       0.00         34          0          0          0         33          0
  closecuts        :       0.00       0.00          0          0          0          0          0          0
  cmir             :       0.00       0.00          0          0          0          0          0          0
  convexproj       :       0.00       0.00          0          0          0          0          0          0
  disjunctive      :       0.00       0.00          0          0          0          0          0          0
  eccuts           :       0.00       0.00          0          0          0          0          0          0
  flowcover        :       0.00       0.00          0          0          0          0          0          0
  gauge            :       0.00       0.00          0          0          0          0          0          0
  gomory           :       1.79       0.00         10          0          0          0          0          0
  impliedbounds    :       0.29       0.00         34          0          0          0       1728          0
  intobj           :       0.00       0.00          0          0          0          0          0          0
  mcf              :       0.03       0.00          1          0          0          0          0          0
  oddcycle         :       0.00       0.00          0          0          0          0          0          0
  rapidlearning    :       0.00       0.00          0          0          0          0          0          0
  strongcg         :       9.14       0.00         20          0          0          0          1          0
  zerohalf         :      29.09       0.00         20          0          0          0          5          0
Pricers            :   ExecTime  SetupTime      Calls       Vars
  problem variables:       0.00          -          0          0
Branching Rules    :   ExecTime  SetupTime   BranchLP  BranchExt   BranchPS    Cutoffs    DomReds       Cuts      Conss   Children
  allfullstrong    :       0.00       0.00          0          0          0          0          0          0          0          0
  cloud            :       0.00       0.00          0          0          0          0          0          0          0          0
  distribution     :       0.00       0.00          0          0          0          0          0          0          0          0
  fullstrong       :       0.00       0.00          0          0          0          0          0          0          0          0
  inference        :       0.00       0.00          0          0          0          0          0          0          0          0
  leastinf         :       0.00       0.00          0          0          0          0          0          0          0          0
  lookahead        :       0.00       0.00          0          0          0          0          0          0          0          0
  mostinf          :       0.00       0.00          0          0          0          0          0          0          0          0
  multaggr         :       0.00       0.00          0          0          0          0          0          0          0          0
  nodereopt        :       0.00       0.00          0          0          0          0          0          0          0          0
  pscost           :       0.00       0.00          0          0          0          0          0          0          0          0
  random           :       0.00       0.00          0          0          0          0          0          0          0          0
  relpscost        :     125.77       0.00          1          0          0          0          0          0          0          2
Primal Heuristics  :   ExecTime  SetupTime      Calls      Found       Best
  LP solutions     :       0.00          -          -          0          0
  relax solutions  :       0.00          -          -          0          0
  pseudo solutions :       0.00          -          -          0          0
  strong branching :       0.00          -          -          0          0
  actconsdiving    :       0.00       0.00          0          0          0
  alns             :       0.00       0.00          1          0          0
  bound            :       0.00       0.00          0          0          0
  clique           :       0.29       0.00          1          1          1
  coefdiving       :       0.00       0.00          0          0          0
  completesol      :       0.00       0.00          0          0          0
  conflictdiving   :       0.00       0.00          0          0          0
  crossover        :       0.00       0.00          0          0          0
  dins             :       0.00       0.00          0          0          0
  distributiondivin:       0.00       0.00          0          0          0
  dualval          :       0.00       0.00          0          0          0
  farkasdiving     :       0.00       0.00          0          0          0
  feaspump         :     388.39       0.00          1          0          0
  fixandinfer      :       0.00       0.00          0          0          0
  fracdiving       :       0.00       0.00          0          0          0
  gins             :       0.00       0.00          0          0          0
  guideddiving     :       0.00       0.00          0          0          0
  indicator        :       0.00       0.00          0          0          0
  intdiving        :       0.00       0.00          0          0          0
  intshifting      :       0.00       0.00          0          0          0
  linesearchdiving :       0.00       0.00          0          0          0
  localbranching   :       0.00       0.00          0          0          0
  locks            :       0.15       0.00          1          0          0
  lpface           :       0.00       0.00          0          0          0
  mpec             :       0.00       0.00          0          0          0
  multistart       :       0.00       0.00          0          0          0
  mutation         :       0.00       0.00          0          0          0
  nlpdiving        :       0.00       0.00          0          0          0
  objpscostdiving  :       0.00       0.00          0          0          0
  octane           :       0.00       0.00          0          0          0
  ofins            :       0.00       0.00          0          0          0
  oneopt           :       0.01       0.00          1          0          0
  proximity        :       0.00       0.00          0          0          0
  pscostdiving     :       0.00       0.00          0          0          0
  randrounding     :       0.84       0.00         36          0          0
  rens             :       0.00       0.00          0          0          0
  reoptsols        :       0.00       0.00          0          0          0
  repair           :       0.00       0.00          0          0          0
  rins             :       0.00       0.00          0          0          0
  rootsoldiving    :       0.00       0.00          0          0          0
  rounding         :       0.29       0.00         36          0          0
  shiftandpropagate:       0.00       0.00          0          0          0
  shifting         :       1.92       0.00         36          0          0
  simplerounding   :       0.01       0.00          0          0          0
  subnlp           :       0.00       0.00          0          0          0
  trivial          :       0.05       0.00          2          1          1
  trivialnegation  :       0.00       0.00          0          0          0
  trysol           :       0.00       0.00          0          0          0
  twoopt           :       0.00       0.00          0          0          0
  undercover       :       0.00       0.00          1          0          0
  vbounds          :       0.62       0.00          1          0          0
  veclendiving     :       0.00       0.00          0          0          0
  zeroobj          :       0.00       0.00          0          0          0
  zirounding       :       0.02       0.00          1          0          0
  other solutions  :          -          -          -          0          -
Diving Statistics  :      Calls      Nodes   LP Iters Backtracks  Conflicts   MinDepth   MaxDepth   AvgDepth  RoundSols  NLeafSols  MinSolDpt  MaxSolDpt  AvgSolDpt
  actconsdiving    :          0          -          -          -          -          -          -          -          -          -          -          -          -
  coefdiving       :          0          -          -          -          -          -          -          -          -          -          -          -          -
  conflictdiving   :          0          -          -          -          -          -          -          -          -          -          -          -          -
  distributiondivin:          0          -          -          -          -          -          -          -          -          -          -          -          -
  farkasdiving     :          0          -          -          -          -          -          -          -          -          -          -          -          -
  fracdiving       :          0          -          -          -          -          -          -          -          -          -          -          -          -
  guideddiving     :          0          -          -          -          -          -          -          -          -          -          -          -          -
  linesearchdiving :          0          -          -          -          -          -          -          -          -          -          -          -          -
  pscostdiving     :          0          -          -          -          -          -          -          -          -          -          -          -          -
  veclendiving     :          0          -          -          -          -          -          -          -          -          -          -          -          -
Neighborhoods      :      Calls  SetupTime  SolveTime SolveNodes       Sols       Best       Exp3  EpsGreedy        UCB TgtFixRate  Opt  Inf Node Stal  Sol  Usr Othr Actv
  rens             :          1       0.00       0.00          0          0          0    0.00000   -1.00000    1.00000      0.900    0    0    0    0    0    0    1    1
  rins             :          0       0.00       0.00          0          0          0    0.00000   -1.00000    1.00000      0.900    0    0    0    0    0    0    0    1
  mutation         :          0       0.00       0.00          0          0          0    0.00000   -1.00000    1.00000      0.900    0    0    0    0    0    0    0    1
  localbranching   :          0       0.00       0.00          0          0          0    0.00000   -1.00000    1.00000      0.900    0    0    0    0    0    0    0    1
  crossover        :          0       0.00       0.00          0          0          0    0.00000   -1.00000    1.00000      0.900    0    0    0    0    0    0    0    1
  proximity        :          0       0.00       0.00          0          0          0    0.00000   -1.00000    1.00000      0.900    0    0    0    0    0    0    0    1
  zeroobjective    :          0       0.00       0.00          0          0          0    0.00000   -1.00000    1.00000      0.900    0    0    0    0    0    0    0    1
  dins             :          0       0.00       0.00          0          0          0    0.00000   -1.00000    1.00000      0.900    0    0    0    0    0    0    0    1
LP                 :       Time      Calls Iterations  Iter/call   Iter/sec  Time-0-It Calls-0-It    ItLimit
  primal LP        :      27.26          4          0       0.00       0.00      27.26          4
  dual LP          :    6537.99         36    2082125   57836.81     318.47       0.00          0
  lex dual LP      :       0.00          0          0       0.00          -
  barrier LP       :       0.00          0          0       0.00          -       0.00          0
  resolve instable :       0.00          0          0       0.00          -
  diving/probing LP:     388.39          8      59477    7434.62     153.14
  strong branching :     125.72          7       6286     898.00      50.00          -          -         12
    (at root node) :          -          7       6286     898.00          -
  conflict analysis:       0.01          1         10      10.00    1000.00
B&B Tree           :
  number of runs   :          1
  nodes            :          1 (1 internal, 0 leaves)
  feasible leaves  :          0
  infeas. leaves   :          0
  objective leaves :          0
  nodes (total)    :          1 (1 internal, 0 leaves)
  nodes left       :          2
  max depth        :          0
  max depth (total):          0
  backtracks       :          0 (0.0%)
  early backtracks :          0 (0.0%)
  nodes exc. ref.  :          0 (0.0%)
  delayed cutoffs  :          0
  repropagations   :          0 (0 domain reductions, 0 cutoffs)
  avg switch length:       1.00
  switching time   :       0.00
Root Node          :
  First LP value   : +1.34390488688637e+00
  First LP Iters   :      79496 (922.87 Iter/sec)
  First LP Time    :      86.14
  Final Dual Bound : +3.42789684732252e+00
  Final Root Iters :    2082125
  Root LP Estimate :                     -
Solution           :
  Solutions found  :          2 (2 improvements)
  First Solution   : +7.00000000000000e+01   (in run 1, after 1 nodes, 4.39 seconds, depth 0, found by <trivial>)
  Gap First Sol.   :   infinite
  Gap Last Sol.    :   infinite
  Primal Bound     : +1.80000000000000e+01   (in run 1, after 1 nodes, 4.66 seconds, depth 30, found by <clique>)
  Dual Bound       : +3.42789684732252e+00
  Gap              :     425.10 %
  Avg. Gap         :      82.08 % (591006.75 primal-dual integral)
  Tree Data        : 3 nodes (1 visited, 1 inner, 0 leaves, 2 open), progress: 0.0000
Tree Estimation    :       estim       value       trend  resolution      smooth
  wbe              :          -1           -           -           -           -
  tree profile     :          -1           -           -           -           -
  gap              :          -1     0.00000 999999999999999967336168804116691273849533185806555472917961779471295845921727862608739868455469056.00000           1 999999999999999967336168804116691273849533185806555472917961779471295845921727862608739868455469056
  progress         :          -1     0.00000 999999999999999967336168804116691273849533185806555472917961779471295845921727862608739868455469056.00000           1 999999999999999967336168804116691273849533185806555472917961779471295845921727862608739868455469056
  leaf-frequency   :          -1    -0.50000 999999999999999967336168804116691273849533185806555472917961779471295845921727862608739868455469056.00000           1 999999999999999967336168804116691273849533185806555472917961779471295845921727862608739868455469056
  ssg              :          -1     1.00000 999999999999999967336168804116691273849533185806555472917961779471295845921727862608739868455469056.00000           1 999999999999999967336168804116691273849533185806555472917961779471295845921727862608739868455469056
  open-nodes       :          -1     0.00000 999999999999999967336168804116691273849533185806555472917961779471295845921727862608739868455469056.00000           1 999999999999999967336168804116691273849533185806555472917961779471295845921727862608739868455469056

@04 1566500739
-----------------------------
Do 22. Aug 21:05:39 CEST 2019
-----------------------------

=ready=
